language Essence 1.3

letting costTC be
        function((1, 1) --> 2, (1, 2) --> 2, (1, 3) --> 2, (1, 4) --> 1, (1, 5) --> 1, (1, 6) --> 1, (1, 7) --> 1,
                 (2, 1) --> 1, (2, 2) --> 1, (2, 3) --> 2, (2, 4) --> 1, (2, 5) --> 2, (2, 6) --> 2, (2, 7) --> 1,
                 (3, 1) --> 2, (3, 2) --> 1, (3, 3) --> 1, (3, 4) --> 1, (3, 5) --> 1, (3, 6) --> 1, (3, 7) --> 1,
                 (4, 1) --> 2, (4, 2) --> 2, (4, 3) --> 1, (4, 4) --> 1, (4, 5) --> 2, (4, 6) --> 2, (4, 7) --> 1,
                 (5, 1) --> 2, (5, 2) --> 2, (5, 3) --> 2, (5, 4) --> 2, (5, 5) --> 2, (5, 6) --> 1, (5, 7) --> 2,
                 (6, 1) --> 1, (6, 2) --> 1, (6, 3) --> 1, (6, 4) --> 1, (6, 5) --> 2, (6, 6) --> 1, (6, 7) --> 2,
                 (7, 1) --> 1, (7, 2) --> 1, (7, 3) --> 2, (7, 4) --> 1, (7, 5) --> 2, (7, 6) --> 2, (7, 7) --> 2,
                 (8, 1) --> 2, (8, 2) --> 2, (8, 3) --> 1, (8, 4) --> 2, (8, 5) --> 2, (8, 6) --> 2, (8, 7) --> 1,
                 (9, 1) --> 1, (9, 2) --> 1, (9, 3) --> 2, (9, 4) --> 2, (9, 5) --> 1, (9, 6) --> 1, (9, 7) --> 1,
                 (10, 1) --> 1, (10, 2) --> 2, (10, 3) --> 2, (10, 4) --> 2, (10, 5) --> 2, (10, 6) --> 2,
                 (10, 7) --> 1, (11, 1) --> 1, (11, 2) --> 2, (11, 3) --> 2, (11, 4) --> 2, (11, 5) --> 2,
                 (11, 6) --> 2, (11, 7) --> 2, (12, 1) --> 1, (12, 2) --> 1, (12, 3) --> 1, (12, 4) --> 2,
                 (12, 5) --> 1, (12, 6) --> 2, (12, 7) --> 1, (13, 1) --> 1, (13, 2) --> 1, (13, 3) --> 2,
                 (13, 4) --> 1, (13, 5) --> 1, (13, 6) --> 1, (13, 7) --> 1, (14, 1) --> 1, (14, 2) --> 2,
                 (14, 3) --> 1, (14, 4) --> 2, (14, 5) --> 2, (14, 6) --> 2, (14, 7) --> 1, (15, 1) --> 2,
                 (15, 2) --> 1, (15, 3) --> 2, (15, 4) --> 2, (15, 5) --> 2, (15, 6) --> 1, (15, 7) --> 2,
                 (16, 1) --> 2, (16, 2) --> 1, (16, 3) --> 1, (16, 4) --> 2, (16, 5) --> 2, (16, 6) --> 1,
                 (16, 7) --> 1, (17, 1) --> 1, (17, 2) --> 2, (17, 3) --> 1, (17, 4) --> 2, (17, 5) --> 2,
                 (17, 6) --> 2, (17, 7) --> 1, (18, 1) --> 2, (18, 2) --> 1, (18, 3) --> 1, (18, 4) --> 2,
                 (18, 5) --> 1, (18, 6) --> 2, (18, 7) --> 1, (19, 1) --> 1, (19, 2) --> 1, (19, 3) --> 1,
                 (19, 4) --> 1, (19, 5) --> 2, (19, 6) --> 2, (19, 7) --> 1, (20, 1) --> 1, (20, 2) --> 2,
                 (20, 3) --> 2, (20, 4) --> 2, (20, 5) --> 1, (20, 6) --> 1, (20, 7) --> 2, (21, 1) --> 1,
                 (21, 2) --> 2, (21, 3) --> 2, (21, 4) --> 2, (21, 5) --> 2, (21, 6) --> 2, (21, 7) --> 2,
                 (22, 1) --> 2, (22, 2) --> 2, (22, 3) --> 2, (22, 4) --> 2, (22, 5) --> 1, (22, 6) --> 2,
                 (22, 7) --> 2, (23, 1) --> 2, (23, 2) --> 2, (23, 3) --> 1, (23, 4) --> 1, (23, 5) --> 2,
                 (23, 6) --> 1, (23, 7) --> 2, (24, 1) --> 2, (24, 2) --> 1, (24, 3) --> 2, (24, 4) --> 1,
                 (24, 5) --> 1, (24, 6) --> 2, (24, 7) --> 2, (25, 1) --> 2, (25, 2) --> 1, (25, 3) --> 1,
                 (25, 4) --> 1, (25, 5) --> 1, (25, 6) --> 2, (25, 7) --> 1, (26, 1) --> 2, (26, 2) --> 1,
                 (26, 3) --> 1, (26, 4) --> 1, (26, 5) --> 1, (26, 6) --> 1, (26, 7) --> 2, (27, 1) --> 2,
                 (27, 2) --> 1, (27, 3) --> 2, (27, 4) --> 2, (27, 5) --> 2, (27, 6) --> 1, (27, 7) --> 1,
                 (28, 1) --> 1, (28, 2) --> 2, (28, 3) --> 2, (28, 4) --> 1, (28, 5) --> 2, (28, 6) --> 2,
                 (28, 7) --> 1, (29, 1) --> 2, (29, 2) --> 1, (29, 3) --> 2, (29, 4) --> 1, (29, 5) --> 2,
                 (29, 6) --> 2, (29, 7) --> 1, (30, 1) --> 2, (30, 2) --> 1, (30, 3) --> 2, (30, 4) --> 1,
                 (30, 5) --> 1, (30, 6) --> 1, (30, 7) --> 1, (31, 1) --> 2, (31, 2) --> 2, (31, 3) --> 1,
                 (31, 4) --> 1, (31, 5) --> 2, (31, 6) --> 2, (31, 7) --> 1)
letting costWT be
        function((1, 1) --> 1, (1, 2) --> 2, (1, 3) --> 3, (1, 4) --> 1, (1, 5) --> 2, (1, 6) --> 1, (1, 7) --> 3,
                 (1, 8) --> 2, (1, 9) --> 2, (1, 10) --> 1, (1, 11) --> 2, (1, 12) --> 3, (1, 13) --> 3, (1, 14) --> 3,
                 (1, 15) --> 3, (1, 16) --> 2, (1, 17) --> 2, (1, 18) --> 2, (1, 19) --> 1, (1, 20) --> 3,
                 (1, 21) --> 2, (1, 22) --> 3, (1, 23) --> 3, (1, 24) --> 1, (1, 25) --> 2, (1, 26) --> 1,
                 (1, 27) --> 3, (1, 28) --> 1, (1, 29) --> 3, (1, 30) --> 3, (1, 31) --> 3, (2, 1) --> 1, (2, 2) --> 2,
                 (2, 3) --> 3, (2, 4) --> 1, (2, 5) --> 2, (2, 6) --> 1, (2, 7) --> 1, (2, 8) --> 1, (2, 9) --> 3,
                 (2, 10) --> 1, (2, 11) --> 3, (2, 12) --> 3, (2, 13) --> 2, (2, 14) --> 2, (2, 15) --> 2,
                 (2, 16) --> 1, (2, 17) --> 1, (2, 18) --> 2, (2, 19) --> 3, (2, 20) --> 2, (2, 21) --> 1,
                 (2, 22) --> 1, (2, 23) --> 3, (2, 24) --> 3, (2, 25) --> 3, (2, 26) --> 2, (2, 27) --> 1,
                 (2, 28) --> 3, (2, 29) --> 2, (2, 30) --> 1, (2, 31) --> 3, (3, 1) --> 3, (3, 2) --> 1, (3, 3) --> 1,
                 (3, 4) --> 3, (3, 5) --> 1, (3, 6) --> 1, (3, 7) --> 3, (3, 8) --> 2, (3, 9) --> 1, (3, 10) --> 3,
                 (3, 11) --> 3, (3, 12) --> 3, (3, 13) --> 1, (3, 14) --> 1, (3, 15) --> 3, (3, 16) --> 2,
                 (3, 17) --> 1, (3, 18) --> 3, (3, 19) --> 3, (3, 20) --> 3, (3, 21) --> 2, (3, 22) --> 1,
                 (3, 23) --> 3, (3, 24) --> 2, (3, 25) --> 1, (3, 26) --> 3, (3, 27) --> 1, (3, 28) --> 2,
                 (3, 29) --> 3, (3, 30) --> 3, (3, 31) --> 1, (4, 1) --> 2, (4, 2) --> 2, (4, 3) --> 3, (4, 4) --> 1,
                 (4, 5) --> 1, (4, 6) --> 1, (4, 7) --> 3, (4, 8) --> 1, (4, 9) --> 1, (4, 10) --> 1, (4, 11) --> 2,
                 (4, 12) --> 3, (4, 13) --> 2, (4, 14) --> 3, (4, 15) --> 2, (4, 16) --> 1, (4, 17) --> 3,
                 (4, 18) --> 3, (4, 19) --> 1, (4, 20) --> 3, (4, 21) --> 2, (4, 22) --> 3, (4, 23) --> 3,
                 (4, 24) --> 3, (4, 25) --> 3, (4, 26) --> 1, (4, 27) --> 1, (4, 28) --> 2, (4, 29) --> 1,
                 (4, 30) --> 2, (4, 31) --> 3, (5, 1) --> 2, (5, 2) --> 3, (5, 3) --> 2, (5, 4) --> 3, (5, 5) --> 3,
                 (5, 6) --> 1, (5, 7) --> 3, (5, 8) --> 3, (5, 9) --> 2, (5, 10) --> 3, (5, 11) --> 3, (5, 12) --> 3,
                 (5, 13) --> 1, (5, 14) --> 3, (5, 15) --> 3, (5, 16) --> 1, (5, 17) --> 1, (5, 18) --> 2,
                 (5, 19) --> 3, (5, 20) --> 3, (5, 21) --> 3, (5, 22) --> 1, (5, 23) --> 2, (5, 24) --> 2,
                 (5, 25) --> 3, (5, 26) --> 2, (5, 27) --> 1, (5, 28) --> 3, (5, 29) --> 2, (5, 30) --> 1,
                 (5, 31) --> 1, (6, 1) --> 2, (6, 2) --> 2, (6, 3) --> 2, (6, 4) --> 1, (6, 5) --> 1, (6, 6) --> 3,
                 (6, 7) --> 1, (6, 8) --> 2, (6, 9) --> 3, (6, 10) --> 1, (6, 11) --> 2, (6, 12) --> 2, (6, 13) --> 2,
                 (6, 14) --> 3, (6, 15) --> 3, (6, 16) --> 1, (6, 17) --> 2, (6, 18) --> 2, (6, 19) --> 3,
                 (6, 20) --> 3, (6, 21) --> 3, (6, 22) --> 3, (6, 23) --> 3, (6, 24) --> 2, (6, 25) --> 3,
                 (6, 26) --> 3, (6, 27) --> 2, (6, 28) --> 3, (6, 29) --> 1, (6, 30) --> 3, (6, 31) --> 2, (7, 1) --> 3,
                 (7, 2) --> 1, (7, 3) --> 3, (7, 4) --> 1, (7, 5) --> 3, (7, 6) --> 2, (7, 7) --> 1, (7, 8) --> 1,
                 (7, 9) --> 3, (7, 10) --> 3, (7, 11) --> 2, (7, 12) --> 3, (7, 13) --> 1, (7, 14) --> 2, (7, 15) --> 1,
                 (7, 16) --> 2, (7, 17) --> 2, (7, 18) --> 2, (7, 19) --> 2, (7, 20) --> 2, (7, 21) --> 3,
                 (7, 22) --> 2, (7, 23) --> 2, (7, 24) --> 2, (7, 25) --> 1, (7, 26) --> 1, (7, 27) --> 2,
                 (7, 28) --> 3, (7, 29) --> 2, (7, 30) --> 2, (7, 31) --> 2, (8, 1) --> 1, (8, 2) --> 1, (8, 3) --> 2,
                 (8, 4) --> 1, (8, 5) --> 3, (8, 6) --> 1, (8, 7) --> 3, (8, 8) --> 3, (8, 9) --> 3, (8, 10) --> 3,
                 (8, 11) --> 1, (8, 12) --> 3, (8, 13) --> 2, (8, 14) --> 3, (8, 15) --> 1, (8, 16) --> 2,
                 (8, 17) --> 1, (8, 18) --> 3, (8, 19) --> 3, (8, 20) --> 2, (8, 21) --> 2, (8, 22) --> 2,
                 (8, 23) --> 1, (8, 24) --> 1, (8, 25) --> 3, (8, 26) --> 3, (8, 27) --> 1, (8, 28) --> 3,
                 (8, 29) --> 1, (8, 30) --> 1, (8, 31) --> 1, (9, 1) --> 2, (9, 2) --> 2, (9, 3) --> 3, (9, 4) --> 3,
                 (9, 5) --> 1, (9, 6) --> 1, (9, 7) --> 3, (9, 8) --> 3, (9, 9) --> 1, (9, 10) --> 1, (9, 11) --> 3,
                 (9, 12) --> 2, (9, 13) --> 3, (9, 14) --> 1, (9, 15) --> 2, (9, 16) --> 3, (9, 17) --> 1,
                 (9, 18) --> 3, (9, 19) --> 2, (9, 20) --> 1, (9, 21) --> 1, (9, 22) --> 3, (9, 23) --> 1,
                 (9, 24) --> 3, (9, 25) --> 2, (9, 26) --> 1, (9, 27) --> 2, (9, 28) --> 2, (9, 29) --> 1,
                 (9, 30) --> 1, (9, 31) --> 1, (10, 1) --> 1, (10, 2) --> 1, (10, 3) --> 1, (10, 4) --> 2,
                 (10, 5) --> 3, (10, 6) --> 2, (10, 7) --> 1, (10, 8) --> 2, (10, 9) --> 2, (10, 10) --> 3,
                 (10, 11) --> 3, (10, 12) --> 2, (10, 13) --> 3, (10, 14) --> 2, (10, 15) --> 2, (10, 16) --> 3,
                 (10, 17) --> 3, (10, 18) --> 3, (10, 19) --> 3, (10, 20) --> 2, (10, 21) --> 2, (10, 22) --> 3,
                 (10, 23) --> 2, (10, 24) --> 2, (10, 25) --> 3, (10, 26) --> 2, (10, 27) --> 1, (10, 28) --> 1,
                 (10, 29) --> 3, (10, 30) --> 1, (10, 31) --> 1, (11, 1) --> 2, (11, 2) --> 1, (11, 3) --> 2,
                 (11, 4) --> 2, (11, 5) --> 1, (11, 6) --> 1, (11, 7) --> 3, (11, 8) --> 2, (11, 9) --> 2,
                 (11, 10) --> 2, (11, 11) --> 1, (11, 12) --> 3, (11, 13) --> 2, (11, 14) --> 2, (11, 15) --> 2,
                 (11, 16) --> 1, (11, 17) --> 2, (11, 18) --> 2, (11, 19) --> 2, (11, 20) --> 3, (11, 21) --> 1,
                 (11, 22) --> 3, (11, 23) --> 3, (11, 24) --> 2, (11, 25) --> 3, (11, 26) --> 3, (11, 27) --> 1,
                 (11, 28) --> 3, (11, 29) --> 3, (11, 30) --> 3, (11, 31) --> 1, (12, 1) --> 3, (12, 2) --> 1,
                 (12, 3) --> 2, (12, 4) --> 1, (12, 5) --> 2, (12, 6) --> 1, (12, 7) --> 3, (12, 8) --> 1,
                 (12, 9) --> 2, (12, 10) --> 1, (12, 11) --> 2, (12, 12) --> 3, (12, 13) --> 2, (12, 14) --> 3,
                 (12, 15) --> 3, (12, 16) --> 3, (12, 17) --> 1, (12, 18) --> 2, (12, 19) --> 1, (12, 20) --> 3,
                 (12, 21) --> 3, (12, 22) --> 2, (12, 23) --> 2, (12, 24) --> 3, (12, 25) --> 1, (12, 26) --> 1,
                 (12, 27) --> 1, (12, 28) --> 3, (12, 29) --> 2, (12, 30) --> 3, (12, 31) --> 1, (13, 1) --> 2,
                 (13, 2) --> 1, (13, 3) --> 2, (13, 4) --> 2, (13, 5) --> 3, (13, 6) --> 3, (13, 7) --> 2,
                 (13, 8) --> 1, (13, 9) --> 3, (13, 10) --> 2, (13, 11) --> 2, (13, 12) --> 3, (13, 13) --> 2,
                 (13, 14) --> 1, (13, 15) --> 2, (13, 16) --> 1, (13, 17) --> 1, (13, 18) --> 1, (13, 19) --> 2,
                 (13, 20) --> 2, (13, 21) --> 3, (13, 22) --> 2, (13, 23) --> 2, (13, 24) --> 3, (13, 25) --> 1,
                 (13, 26) --> 3, (13, 27) --> 3, (13, 28) --> 3, (13, 29) --> 3, (13, 30) --> 2, (13, 31) --> 2,
                 (14, 1) --> 2, (14, 2) --> 2, (14, 3) --> 1, (14, 4) --> 3, (14, 5) --> 2, (14, 6) --> 2,
                 (14, 7) --> 2, (14, 8) --> 1, (14, 9) --> 3, (14, 10) --> 3, (14, 11) --> 2, (14, 12) --> 2,
                 (14, 13) --> 3, (14, 14) --> 2, (14, 15) --> 2, (14, 16) --> 1, (14, 17) --> 2, (14, 18) --> 3,
                 (14, 19) --> 1, (14, 20) --> 3, (14, 21) --> 2, (14, 22) --> 2, (14, 23) --> 2, (14, 24) --> 2,
                 (14, 25) --> 1, (14, 26) --> 2, (14, 27) --> 2, (14, 28) --> 3, (14, 29) --> 2, (14, 30) --> 3,
                 (14, 31) --> 1, (15, 1) --> 2, (15, 2) --> 1, (15, 3) --> 2, (15, 4) --> 3, (15, 5) --> 1,
                 (15, 6) --> 1, (15, 7) --> 3, (15, 8) --> 2, (15, 9) --> 2, (15, 10) --> 2, (15, 11) --> 3,
                 (15, 12) --> 1, (15, 13) --> 2, (15, 14) --> 3, (15, 15) --> 1, (15, 16) --> 2, (15, 17) --> 2,
                 (15, 18) --> 2, (15, 19) --> 3, (15, 20) --> 1, (15, 21) --> 3, (15, 22) --> 3, (15, 23) --> 3,
                 (15, 24) --> 3, (15, 25) --> 2, (15, 26) --> 3, (15, 27) --> 3, (15, 28) --> 1, (15, 29) --> 3,
                 (15, 30) --> 3, (15, 31) --> 3, (16, 1) --> 3, (16, 2) --> 2, (16, 3) --> 2, (16, 4) --> 3,
                 (16, 5) --> 1, (16, 6) --> 1, (16, 7) --> 2, (16, 8) --> 3, (16, 9) --> 3, (16, 10) --> 3,
                 (16, 11) --> 2, (16, 12) --> 1, (16, 13) --> 1, (16, 14) --> 2, (16, 15) --> 2, (16, 16) --> 2,
                 (16, 17) --> 2, (16, 18) --> 2, (16, 19) --> 2, (16, 20) --> 2, (16, 21) --> 3, (16, 22) --> 1,
                 (16, 23) --> 3, (16, 24) --> 1, (16, 25) --> 2, (16, 26) --> 3, (16, 27) --> 2, (16, 28) --> 3,
                 (16, 29) --> 3, (16, 30) --> 2, (16, 31) --> 1, (17, 1) --> 1, (17, 2) --> 2, (17, 3) --> 2,
                 (17, 4) --> 3, (17, 5) --> 1, (17, 6) --> 2, (17, 7) --> 3, (17, 8) --> 1, (17, 9) --> 1,
                 (17, 10) --> 1, (17, 11) --> 3, (17, 12) --> 2, (17, 13) --> 1, (17, 14) --> 3, (17, 15) --> 3,
                 (17, 16) --> 3, (17, 17) --> 3, (17, 18) --> 2, (17, 19) --> 3, (17, 20) --> 3, (17, 21) --> 3,
                 (17, 22) --> 2, (17, 23) --> 2, (17, 24) --> 3, (17, 25) --> 2, (17, 26) --> 2, (17, 27) --> 3,
                 (17, 28) --> 3, (17, 29) --> 3, (17, 30) --> 3, (17, 31) --> 1, (18, 1) --> 3, (18, 2) --> 2,
                 (18, 3) --> 3, (18, 4) --> 2, (18, 5) --> 3, (18, 6) --> 2, (18, 7) --> 2, (18, 8) --> 3,
                 (18, 9) --> 3, (18, 10) --> 3, (18, 11) --> 2, (18, 12) --> 2, (18, 13) --> 2, (18, 14) --> 2,
                 (18, 15) --> 3, (18, 16) --> 3, (18, 17) --> 3, (18, 18) --> 3, (18, 19) --> 2, (18, 20) --> 1,
                 (18, 21) --> 2, (18, 22) --> 2, (18, 23) --> 2, (18, 24) --> 1, (18, 25) --> 2, (18, 26) --> 3,
                 (18, 27) --> 3, (18, 28) --> 2, (18, 29) --> 1, (18, 30) --> 2, (18, 31) --> 2, (19, 1) --> 1,
                 (19, 2) --> 3, (19, 3) --> 3, (19, 4) --> 3, (19, 5) --> 2, (19, 6) --> 1, (19, 7) --> 1,
                 (19, 8) --> 3, (19, 9) --> 1, (19, 10) --> 2, (19, 11) --> 3, (19, 12) --> 2, (19, 13) --> 3,
                 (19, 14) --> 2, (19, 15) --> 1, (19, 16) --> 2, (19, 17) --> 2, (19, 18) --> 1, (19, 19) --> 1,
                 (19, 20) --> 1, (19, 21) --> 2, (19, 22) --> 1, (19, 23) --> 2, (19, 24) --> 2, (19, 25) --> 2,
                 (19, 26) --> 1, (19, 27) --> 2, (19, 28) --> 1, (19, 29) --> 2, (19, 30) --> 3, (19, 31) --> 1,
                 (20, 1) --> 2, (20, 2) --> 1, (20, 3) --> 1, (20, 4) --> 1, (20, 5) --> 3, (20, 6) --> 2,
                 (20, 7) --> 1, (20, 8) --> 3, (20, 9) --> 3, (20, 10) --> 3, (20, 11) --> 1, (20, 12) --> 2,
                 (20, 13) --> 1, (20, 14) --> 3, (20, 15) --> 3, (20, 16) --> 1, (20, 17) --> 2, (20, 18) --> 3,
                 (20, 19) --> 1, (20, 20) --> 2, (20, 21) --> 2, (20, 22) --> 1, (20, 23) --> 3, (20, 24) --> 2,
                 (20, 25) --> 2, (20, 26) --> 2, (20, 27) --> 3, (20, 28) --> 1, (20, 29) --> 2, (20, 30) --> 2,
                 (20, 31) --> 3)
letting demand be function(1 --> 23, 2 --> 21, 3 --> 24, 4 --> 24, 5 --> 21, 6 --> 29, 7 --> 25)
letting maxCost be 38
letting n_customer be 7
letting n_transshipment be 31
letting n_warehouses be 20
letting stock be
        function(1 --> 26, 2 --> 26, 3 --> 26, 4 --> 26, 5 --> 26, 6 --> 26, 7 --> 26, 8 --> 26, 9 --> 26, 10 --> 26,
                 11 --> 26, 12 --> 26, 13 --> 26, 14 --> 26, 15 --> 26, 16 --> 26, 17 --> 26, 18 --> 26, 19 --> 26,
                 20 --> 26)
